50
25452

986 666
240 396
526 277
907 554
519 31
766 130
543 596
624 248
310 673
830 171
188 744
451 963
542 834
447 24
545 385
902 418
270 544
670 368
719 905
83 886
291 102
271 994
818 435
183 765
273 491
66 990
114 661
787 248
815 885
702 481
429 545
597 252
845 752
273 546
275 954
507 333
558 326
604 863
870 851
295 582
721 269
914 894
983 655
1 251
606 945
834 631
857 477
744 396
890 391
807 425
